54 50 30 63 57 66 15 33 25 
27 49 12 69 62 11 36 64 35 23 53 8 26 55 46 58 28 32 65 6 
75 16 56 51 29 72 71 67 22 9 39 68 31 7 59 1 74 4 13 18 14 41 
45 10 73 37 61 17 5 40 20 44 38 43 24 19 52 21 48 47 70 34 42 60 2 3 

